sing20220115.12
TTAA  65111 48698
99008 28657 04009 00107 27650 04518 92791 22035 01518
85524 17221 36002 70165 12461 24010 50589 05933 27512
40760 17720 01508 30970 32550 08502 25096 42159 09531
20242 55156 09049 15421 63371 10047 10659 80961 03527
88999
77164 10078 42945=
TTCC  65112 48698
70858 84759 01008 50053 71968 05018 30364 59983 08549
20623 53385 09545
88745 86358 29512
77268 08064 42121=
TTDD  6511/ 48698
11906 79562 22745 86358 33708 86158 44648 80959 55619 74763
66573 70365 77517 72966 88453 69571 99440 65575 11364 64978
22310 61582 33271 55385 44219 54985 55169 50198
21212 11948 02523 22889 34010 33835 27012 44718 32012 55706
34510 66683 07010 77653 08014 88615 14014 99562 10518 11536
03516 22520 03018 33473 09514 44397 08549 55314 09549 66268
08064 77231 10058 88169 08035=
